\ Model mip_model
\ LP format - for model browsing. Use MPS format to capture full model detail.
Minimize
  q[0,0,0] + 2 q[0,0,1] + 3 q[0,0,2] + 4 q[0,0,3] + 5 q[0,0,4] + 6 q[0,0,5]
   + 7 q[0,0,6] + 8 q[0,0,7] + 9 q[0,0,8] + 10 q[0,0,9] + q[0,1,0]
   + 2 q[0,1,1] + 3 q[0,1,2] + 4 q[0,1,3] + 5 q[0,1,4] + 6 q[0,1,5]
   + 7 q[0,1,6] + 8 q[0,1,7] + 9 q[0,1,8] + 10 q[0,1,9] + q[1,0,0]
   + 2 q[1,0,1] + 3 q[1,0,2] + 4 q[1,0,3] + 5 q[1,0,4] + 6 q[1,0,5]
   + 7 q[1,0,6] + 8 q[1,0,7] + 9 q[1,0,8] + 10 q[1,0,9] + q[1,1,0]
   + 2 q[1,1,1] + 3 q[1,1,2] + 4 q[1,1,3] + 5 q[1,1,4] + 6 q[1,1,5]
   + 7 q[1,1,6] + 8 q[1,1,7] + 9 q[1,1,8] + 10 q[1,1,9]
Subject To
 R0: q[0,0,0] = 2
 R1: q[0,1,0] = 2
 R2: q[1,0,0] = 4
 R3: q[1,1,0] - c[0,0,0] - c[0,0,1] - c[0,0,2] - c[0,0,3] - c[0,0,4]
   - c[0,0,5] - c[0,0,6] - c[0,0,7] - c[0,0,8] - c[0,0,9] = 2
 R4: - q[0,0,0] + q[0,1,1] + c[0,0,0] = 0
 R5: - q[0,0,1] + q[0,1,2] + c[0,0,1] = 0
 R6: - q[0,0,2] + q[0,1,3] + c[0,0,2] = 0
 R7: - q[0,0,3] + q[0,1,4] + c[0,0,3] = 0
 R8: - q[0,0,4] + q[0,1,5] + c[0,0,4] = 0
 R9: - q[0,0,5] + q[0,1,6] + c[0,0,5] = 0
 R10: - q[0,0,6] + q[0,1,7] + c[0,0,6] = 0
 R11: - q[0,0,7] + q[0,1,8] + c[0,0,7] = 0
 R12: - q[0,0,8] + q[0,1,9] + c[0,0,8] = 0
 R13: - q[1,0,0] + q[1,1,1] + c[1,0,0] = 0
 R14: - q[1,0,1] + q[1,1,2] + c[1,0,1] = 0
 R15: - q[1,0,2] + q[1,1,3] + c[1,0,2] = 0
 R16: - q[1,0,3] + q[1,1,4] + c[1,0,3] = 0
 R17: - q[1,0,4] + q[1,1,5] + c[1,0,4] = 0
 R18: - q[1,0,5] + q[1,1,6] + c[1,0,5] = 0
 R19: - q[1,0,6] + q[1,1,7] + c[1,0,6] = 0
 R20: - q[1,0,7] + q[1,1,8] + c[1,0,7] = 0
 R21: - q[1,0,8] + q[1,1,9] + c[1,0,8] = 0
 R22: - q[0,0,0] + c[0,0,0] <= 0
 R23: - q[0,0,1] + c[0,0,1] <= 0
 R24: - q[0,0,2] + c[0,0,2] <= 0
 R25: - q[0,0,3] + c[0,0,3] <= 0
 R26: - q[0,0,4] + c[0,0,4] <= 0
 R27: - q[0,0,5] + c[0,0,5] <= 0
 R28: - q[0,0,6] + c[0,0,6] <= 0
 R29: - q[0,0,7] + c[0,0,7] <= 0
 R30: - q[0,0,8] + c[0,0,8] <= 0
 R31: - q[0,0,9] + c[0,0,9] <= 0
 R32: - q[0,1,0] + c[0,1,0] <= 0
 R33: - q[0,1,1] + c[0,1,1] <= 0
 R34: - q[0,1,2] + c[0,1,2] <= 0
 R35: - q[0,1,3] + c[0,1,3] <= 0
 R36: - q[0,1,4] + c[0,1,4] <= 0
 R37: - q[0,1,5] + c[0,1,5] <= 0
 R38: - q[0,1,6] + c[0,1,6] <= 0
 R39: - q[0,1,7] + c[0,1,7] <= 0
 R40: - q[0,1,8] + c[0,1,8] <= 0
 R41: - q[0,1,9] + c[0,1,9] <= 0
 R42: - q[1,0,0] + c[1,0,0] <= 0
 R43: - q[1,0,1] + c[1,0,1] <= 0
 R44: - q[1,0,2] + c[1,0,2] <= 0
 R45: - q[1,0,3] + c[1,0,3] <= 0
 R46: - q[1,0,4] + c[1,0,4] <= 0
 R47: - q[1,0,5] + c[1,0,5] <= 0
 R48: - q[1,0,6] + c[1,0,6] <= 0
 R49: - q[1,0,7] + c[1,0,7] <= 0
 R50: - q[1,0,8] + c[1,0,8] <= 0
 R51: - q[1,0,9] + c[1,0,9] <= 0
 R52: - q[1,1,0] + c[1,1,0] <= 0
 R53: - q[1,1,1] + c[1,1,1] <= 0
 R54: - q[1,1,2] + c[1,1,2] <= 0
 R55: - q[1,1,3] + c[1,1,3] <= 0
 R56: - q[1,1,4] + c[1,1,4] <= 0
 R57: - q[1,1,5] + c[1,1,5] <= 0
 R58: - q[1,1,6] + c[1,1,6] <= 0
 R59: - q[1,1,7] + c[1,1,7] <= 0
 R60: - q[1,1,8] + c[1,1,8] <= 0
 R61: - q[1,1,9] + c[1,1,9] <= 0
 R62: c[0,0,0] <= 2
 R63: c[0,0,1] <= 2
 R64: c[0,0,2] <= 2
 R65: c[0,0,3] <= 2
 R66: c[0,0,4] <= 2
 R67: c[0,0,5] <= 2
 R68: c[0,0,6] <= 2
 R69: c[0,0,7] <= 2
 R70: c[0,0,8] <= 2
 R71: c[0,0,9] <= 2
 R72: c[0,1,0] <= 2
 R73: c[0,1,1] <= 2
 R74: c[0,1,2] <= 2
 R75: c[0,1,3] <= 2
 R76: c[0,1,4] <= 2
 R77: c[0,1,5] <= 2
 R78: c[0,1,6] <= 2
 R79: c[0,1,7] <= 2
 R80: c[0,1,8] <= 2
 R81: c[0,1,9] <= 2
 R82: c[1,0,0] <= 2
 R83: c[1,0,1] <= 2
 R84: c[1,0,2] <= 2
 R85: c[1,0,3] <= 2
 R86: c[1,0,4] <= 2
 R87: c[1,0,5] <= 2
 R88: c[1,0,6] <= 2
 R89: c[1,0,7] <= 2
 R90: c[1,0,8] <= 2
 R91: c[1,0,9] <= 2
 R92: c[1,1,0] <= 2
 R93: c[1,1,1] <= 2
 R94: c[1,1,2] <= 2
 R95: c[1,1,3] <= 2
 R96: c[1,1,4] <= 2
 R97: c[1,1,5] <= 2
 R98: c[1,1,6] <= 2
 R99: c[1,1,7] <= 2
 R100: c[1,1,8] <= 2
 R101: c[1,1,9] <= 2
 R102: q[0,0,1] = 0
 R103: q[0,0,2] = 0
 R104: q[0,0,3] = 0
 R105: q[0,0,4] = 0
 R106: q[0,0,5] = 0
 R107: q[0,0,6] = 0
 R108: q[0,0,7] = 0
 R109: q[0,0,8] = 0
 R110: q[0,0,9] = 0
 R111: q[1,0,1] = 0
 R112: q[1,0,2] = 0
 R113: q[1,0,3] = 0
 R114: q[1,0,4] = 0
 R115: q[1,0,5] = 0
 R116: q[1,0,6] = 0
 R117: q[1,0,7] = 0
 R118: q[1,0,8] = 0
 R119: q[1,0,9] = 0
Bounds
Generals
 c[0,0,0] c[0,0,1] c[0,0,2] c[0,0,3] c[0,0,4] c[0,0,5] c[0,0,6] c[0,0,7]
 c[0,0,8] c[0,0,9] c[0,1,0] c[0,1,1] c[0,1,2] c[0,1,3] c[0,1,4] c[0,1,5]
 c[0,1,6] c[0,1,7] c[0,1,8] c[0,1,9] c[1,0,0] c[1,0,1] c[1,0,2] c[1,0,3]
 c[1,0,4] c[1,0,5] c[1,0,6] c[1,0,7] c[1,0,8] c[1,0,9] c[1,1,0] c[1,1,1]
 c[1,1,2] c[1,1,3] c[1,1,4] c[1,1,5] c[1,1,6] c[1,1,7] c[1,1,8] c[1,1,9]
End
